instances/psp/272/272.txt
4 4
38 13 73 10
76  6 80 65
17  2 77 72
7 26 51 21
3 1 2 4
1 3 4 2
1 2 3 4
1 2 3 4
